p cnf 13 43
-13 -12 11 0
-13 12 -11 0
13 -12 -5 0
13 -12 2 0
-13 -11 -9 0
-13 11 -3 0
-13 -11 -3 0
-13 11 2 0
-13 10 5 0
13 -10 3 0
-13 9 -1 0
-13 8 -7 0
13 -8 6 0
13 -7 5 0
12 -11 1 0
12 8 -4 0
-12 4 3 0
-11 9 -7 0
-11 9 6 0
-11 8 -3 0
11 7 -1 0
-10 -9 -6 0
10 -9 -5 0
-10 9 -3 0
-10 4 -3 0
10 -3 -2 0
-10 3 2 0
9 6 -5 0
-9 5 4 0
9 5 2 0
-9 -5 1 0
-9 -3 -1 0
-8 7 -1 0
8 -5 2 0
-8 -5 1 0
-8 -2 -1 0
-7 4 -3 0
-7 4 2 0
-7 -4 -2 0
6 -5 4 0
-6 -5 4 0
6 3 -1 0
5 -4 -3 0
